c ---- [ banner ] ------------------------------------------------------------
c
c Kissat SAT Solver
c 
c Copyright (c) 2021-2023 Armin Biere University of Freiburg
c Copyright (c) 2019-2021 Armin Biere Johannes Kepler University Linz
c 
c Version 3.1.1 unknown
c gcc (Ubuntu 9.4.0-1ubuntu1~20.04.2) 9.4.0 -W -Wall -O3 -DNDEBUG
c Mon Feb 26 18:18:52 CET 2024 Linux OptiPlex-7080 5.15.0-88-generic x86_64
c
c ---- [ parsing ] -----------------------------------------------------------
c
c opened and reading DIMACS file:
c
c   /home/oliveras/SAT-comp-2023//c7bf3517f47d583ae567de3db3708969-oisc-subrv-and-nested-14.cnf
c
c parsed 'p cnf 11241536 39006732' header
c closing input after reading 928478140 bytes (885 MB)
c finished parsing after 9.52 seconds
c
c ---- [ options ] -----------------------------------------------------------
c
c --seed=1                         (different from default '0')
c
c ---- [ solving ] -----------------------------------------------------------
c
c  seconds   switched conflicts        irredundant    variables
c           MB reductions redundant             trail        remaining
c            level restarts       binary           glue
c
c *  9.52 2155 0 0 0  0   0   0 11903254 27103475 0% 0 11241533 100%
c {  9.52 2155 0 0 0  0   0   0 11903254 27103475 0% 0 11241533 100%
c i 17.00 2624 137 0 0  7 373 369 11903257 27103475 46% 4 11240734 100%
c i 17.56 2624 134 0 0 12 383 376 11903259 27103475 45% 4 11240732 100%
c i 30.88 2658 155 0 0 62 525 507 11903265 27103475 41% 4 11240710 100%
c i 31.74 2664 191 0 0 63 538 511 11903273 27103475 40% 4 11240707 100%
c i 31.87 2664 190 0 0 63 540 511 11903274 27103475 40% 4 11240687 100%
c i 37.90 2682 169 0 0 81 624 591 11903277 27103475 39% 4 11240656 100%
c - 65.87 2688 128 0 1 123 1001 886 11900708 27103475 41% 5 11240656 100%
c } 65.87 2688 128 1 1 123 1001 886 11900708 27103475 41% 5 11240656 100%
c [ 65.88 2688 0 1 1 123 1001 886 11900708 27103475 0% 0 11240656 100%
c B 66.40 2732 0 1 1 123 1001 886 11900708 27103475 0% 0 11240656 100%
c i 83.77 2732 223 1 1 123 1628 1485 11900731 27103475 45% 4 11240655 100%
c - 92.06 2748 263 1 2 123 2001 1657 11900728 27103475 53% 5 11240655 100%
c W 96.60 2788 262 1 2 123 2002 1658 11900728 27100853 53% 5 11240655 100%
c - 137.45 2788 416 1 3 124 3416 1873 11900730 27100853 69% 12 11240655 100%
c I 182.54 2788 359 1 3 125 4261 2610 11900732 27100853 67% 13 11240655 100%
c ] 188.67 2791 423 2 3 125 4321 2657 11900741 27100853 66% 13 11240655 100%
c { 188.67 2791 128 2 3 125 4321 2657 11900741 27100853 41% 5 11240655 100%
c i 198.05 2797 135 2 3 128 4487 2804 11900755 27100853 40% 5 11240653 100%
c
c  seconds      switched conflicts           irredundant     variables
c            MB  reductions   redundant                trail        remaining
c              level restarts           binary            glue
c
c i 202.74 2799 127 2 3 128 4592 2903 11900760 27100853 40% 4 11240652 100%
c i 203.92 2799 126 2 3 128 4624 2924 11900770 27100853 40% 4 11240651 100%
c i 205.12 2799 125 2 3 128 4651 2949 11900771 27100853 41% 4 11240649 100%
c i 205.93 2799 123 2 3 128 4667 2960 11900775 27100853 41% 4 11240648 100%
c i 217.25 2805 118 2 3 128 4742 3027 11900782 27100853 40% 4 11240646 100%
c - 224.86 2805 135 2 4 128 5148 2549 11900752 27100853 46% 4 11240646 100%
c i 225.94 2805 138 2 4 129 5228 2577 11900752 27100853 47% 4 11240645 100%
c i 226.40 2805 138 2 4 129 5230 2577 11900753 27100853 47% 4 11240644 100%
c i 226.55 2805 138 2 4 130 5231 2577 11900753 27100853 47% 4 11240643 100%
c i 226.70 2805 138 2 4 130 5232 2577 11900753 27100853 47% 4 11240642 100%
c i 227.06 2805 138 2 4 130 5233 2577 11900753 27100853 47% 4 11240641 100%
c i 227.22 2805 138 2 4 131 5234 2577 11900753 27100853 47% 4 11240640 100%
c i 227.35 2805 138 2 4 131 5235 2577 11900753 27100853 47% 4 11240639 100%
c i 227.48 2805 138 2 4 132 5236 2577 11900753 27100853 47% 4 11240638 100%
c i 227.57 2805 138 2 4 132 5237 2577 11900753 27100853 47% 4 11240637 100%
c i 227.70 2805 138 2 4 132 5238 2577 11900753 27100853 47% 4 11240636 100%
c i 233.00 2889 136 2 4 133 5295 2616 11900770 27100853 47% 4 11240544 100%
c } 233.76 2889 134 3 4 133 5321 2642 11900770 27100853 47% 4 11240544 100%
c [ 233.76 2889 423 3 4 133 5321 2642 11900770 27100853 66% 13 11240544 100%
c i 237.97 2889 395 3 4 133 5631 2939 11900770 27100853 65% 12 11240542 100%
c
c  seconds      switched conflicts           irredundant      variables
c            MB  reductions   redundant                trail         remaining
c              level restarts           binary             glue
c
c i 239.51 2889 390 3 4 133 5683 2989 11900771 27100853 64% 12 11240540 100%
c d 244.30 2895 383 3 4 133 5763 3056 11967620 26978303 64% 11 11240535 100%
c b 247.84 2905 383 3 4 133 5763 3056 11967620 26978303 64% 11 11239375 100%
c u 253.54 2905 383 3 4 133 5763 2943 11967732 26978303 64% 11 11239375 100%
c v 258.96 2905 383 3 4 133 5763 2933 11967742 26978303 64% 11 11239375 100%
c w 276.37 3071 383 3 4 133 5763 2933 11971444 26970550 64% 11 11239375 100%
c = 289.20 3114 383 3 4 133 5763 2933 11987430 26970224 64% 11 11231324 100%
c d 291.30 3114 383 3 4 133 5763 2933 11895749 26966804 64% 11 11199924 100%
c b 297.78 3125 383 3 4 133 5763 2933 11895749 26966804 64% 11 11197765 100%
c - 314.55 3125 394 3 5 133 7150 3119 11877248 26966804 65% 10 11197765 100%
c i 324.00 3127 391 3 5 134 7426 3244 11877250 26966804 65% 10 11197759 100%
c i 324.86 3127 391 3 5 134 7430 3247 11877250 26966804 65% 10 11197758 100%
c i 325.30 3127 391 3 5 134 7431 3247 11877250 26966804 65% 10 11197757 100%
c i 325.70 3127 391 3 5 134 7432 3247 11877250 26966804 65% 10 11197756 100%
c i 326.10 3127 391 3 5 134 7433 3247 11877250 26966804 65% 10 11197755 100%
c i 326.51 3127 391 3 5 134 7434 3247 11877250 26966804 65% 10 11197754 100%
c ] 343.10 3127 368 4 5 134 7834 3392 11877490 26966804 62% 10 11197754 100%
c { 343.10 3127 134 4 5 134 7834 3392 11877490 26966804 47% 4 11197754 100%
c i 355.75 3127 332 4 5 150 7999 3498 11877526 26966804 47% 4 11197683 100%
c i 402.72 3129 274 4 5 189 8857 4302 11877577 26966804 47% 4 11197682 100%
c
c  seconds      switched conflicts           irredundant     variables
c            MB  reductions   redundant                trail        remaining
c              level restarts           binary            glue
c
c - 432.52 3129 244 4 6 193 9386 4249 11868547 26966804 47% 4 11197682 100%
c i 567.17 3129 267 4 6 292 9999 4847 11868556 26966804 49% 5 11197681 100%
c } 589.48 3129 258 5 6 325 10186 5025 11868565 26966804 49% 5 11197681 100%
c [ 589.48 3129 368 5 6 325 10186 5025 11868565 26966804 62% 10 11197681 100%
c B 589.57 3129 368 5 6 325 10186 5025 11868565 26966804 62% 10 11197681 100%
c d 689.36 3137 351 5 6 326 11526 6342 11979945 26755903 63% 18 11197675 100%
c d 690.91 3137 351 5 6 326 11526 6342 11905961 26755897 63% 18 11160703 99%
c b 696.91 3139 351 5 6 326 11526 6342 11905961 26755897 63% 18 11158809 99%
c u 706.81 3139 351 5 6 326 11526 6327 11905971 26755897 63% 18 11158809 99%
c v 716.49 3139 351 5 6 326 11526 6318 11905980 26755897 63% 18 11158809 99%
c w 736.69 3143 351 5 6 326 11526 6318 12015385 26549864 63% 18 11158809 99%
c = 757.23 3143 351 5 6 326 11526 6318 12018572 26547382 63% 18 11155256 99%
c d 759.28 3143 351 5 6 326 11526 6318 11965544 26502305 63% 18 11120181 99%
c d 760.82 3143 351 5 6 326 11526 6318 11965528 26502305 63% 18 11120173 99%
c b 771.23 3148 351 5 6 326 11526 6318 11965528 26502305 63% 18 11115302 99%
c - 784.96 3149 345 5 7 326 11836 5069 11928253 26502305 63% 19 11115302 99%
c i 852.83 3151 334 5 7 327 13644 6819 11928284 26502305 63% 30 11115301 99%
c - 926.68 3151 335 5 8 328 14481 5191 11928284 26502305 64% 36 11115301 99%
c W 1008.28 3156 338 5 8 329 15717 6400 11928303 26450867 66% 42 11115301 99%
c ] 1098.99 3156 334 6 8 330 16972 7646 11928303 26450867 67% 38 11115301 99%
c
c   seconds      switched  conflicts           irredundant     variables
c             MB  reductions    redundant                trail        remaining
c               level restarts            binary            glue
c
c { 1098.99 3156 258 6 8 330 16972 7646 11928303 26450867 49% 5 11115301 99%
c i 1100.91 3156 269 6 8 332 17005 7664 11928314 26450867 49% 5 11083745 99%
c - 1111.20 3156 257 6 9 333 17310 5469 11833449 26450867 49% 5 11083745 99%
c i 1122.10 3156 258 6 9 335 17555 5706 11833455 26450867 49% 5 11083731 99%
c i 1131.31 3156 250 6 9 338 17938 6079 11833462 26450867 49% 5 11083728 99%
c i 1131.31 3156 252 6 9 338 17940 6079 11833462 26450867 49% 5 11083705 99%
c i 1131.31 3156 253 6 9 338 17942 6079 11833462 26450867 49% 5 11083671 99%
c i 1131.31 3156 254 6 9 338 17943 6079 11833462 26450867 49% 5 11083664 99%
c i 1131.31 3156 255 6 9 338 17944 6079 11833462 26450867 49% 5 11083660 99%
c i 1131.31 3156 258 6 9 338 17948 6080 11833464 26450867 49% 5 11083642 99%
c i 1131.31 3156 262 6 9 338 17952 6081 11833465 26450867 49% 5 11083606 99%
c i 1131.31 3156 262 6 9 338 17953 6081 11833465 26450867 49% 5 11083605 99%
c i 1131.31 3156 265 6 9 338 17957 6081 11833465 26450867 49% 5 11083574 99%
c i 1131.31 3156 265 6 9 338 17958 6081 11833465 26450867 49% 5 11083570 99%
c i 1131.31 3156 268 6 9 338 17962 6081 11833467 26450867 49% 5 11083566 99%
c i 1132.52 3156 270 6 9 338 17977 6082 11833477 26450867 49% 5 11083524 99%
c i 1160.93 3156 250 6 9 347 18567 6665 11833479 26450867 49% 5 11083522 99%
c i 1161.19 3156 250 6 9 347 18571 6666 11833481 26450867 49% 5 11083447 99%
c i 1162.63 3156 252 6 9 347 18589 6674 11833489 26450867 48% 5 11083446 99%
c i 1162.63 3156 252 6 9 347 18590 6674 11833489 26450867 48% 5 11083445 99%
c
c   seconds      switched  conflicts           irredundant     variables
c             MB  reductions    redundant                trail        remaining
c               level restarts            binary            glue
c
c i 1199.62 3156 234 6 9 373 19506 7477 11833584 26450867 49% 5 11083443 99%
c i 1200.19 3156 235 6 9 373 19514 7477 11833590 26450867 49% 5 11083442 99%
c i 1200.43 3156 235 6 9 373 19518 7478 11833592 26450867 49% 5 11083441 99%
c i 1200.99 3156 235 6 9 373 19525 7478 11833596 26450867 49% 5 11083437 99%
c - 1241.46 3156 214 6 10 398 20310 7170 11832817 26450867 48% 5 11083437 99%
c i 1255.34 3156 205 6 10 400 20713 7568 11832821 26450867 48% 4 11083435 99%
c i 1255.34 3156 205 6 10 400 20714 7568 11832821 26450867 48% 4 11083434 99%
c i 1256.42 3156 207 6 10 401 20727 7568 11832833 26450867 48% 4 11083433 99%
c i 1256.80 3156 207 6 10 401 20731 7568 11832836 26450867 48% 4 11083432 99%
c i 1256.99 3156 207 6 10 401 20753 7579 11832839 26450867 48% 4 11083375 99%
c i 1257.00 3156 207 6 10 401 20772 7591 11832840 26450867 48% 4 11083317 99%
c i 1257.00 3156 206 6 10 401 20791 7603 11832841 26450867 48% 4 11083259 99%
c } 1261.21 3156 201 7 10 401 21042 7845 11832848 26450867 48% 4 11083199 99%
c [ 1261.21 3156 334 7 10 401 21042 7845 11832848 26450867 67% 38 11083199 99%
c O 1374.97 3156 349 7 10 403 23246 10003 11832875 26450867 68% 42 11083199 99%
c - 1392.39 3156 348 7 11 403 23472 8041 11831945 26450867 68% 41 11083199 99%
c d 1395.64 3156 347 7 11 403 23493 8057 11985558 26198134 68% 41 11083103 99%
c d 1397.17 3156 347 7 11 403 23493 8057 11834845 26198073 68% 41 11007775 98%
c b 1403.72 3158 347 7 11 403 23493 8057 11834845 26198073 68% 41 10995494 98%
c u 1414.04 3158 347 7 11 403 23493 8046 11834853 26198073 68% 41 10995494 98%
c
c   seconds      switched   conflicts           irredundant      variables
c             MB   reductions    redundant                trail         remaining
c               level  restarts            binary             glue
c
c v 1424.13 3158 347 7 11 403 23493 8034 11834863 26198073 68% 41 10992864 98%
c w 1444.93 3160 347 7 11 403 23493 8034 11978837 25910283 68% 41 10992864 98%
c = 1467.19 3160 347 7 11 403 23493 8034 11989367 25903237 68% 41 10986370 98%
c d 1469.20 3160 347 7 11 403 23493 8032 11899757 25873985 68% 41 10942450 97%
c d 1470.70 3160 347 7 11 403 23493 8032 11899709 25873969 68% 41 10942426 97%
c b 1481.42 3166 347 7 11 403 23493 8032 11899709 25873969 68% 41 10927387 97%
c i 1481.42 3166 347 7 11 403 23493 8032 11899709 25873969 68% 41 10927387 97%
c ] 1567.87 3166 344 8 11 403 24331 8817 11899747 25873969 69% 40 10927387 97%
c { 1567.87 3166 201 8 11 403 24331 8817 11899747 25873969 48% 4 10927387 97%
c i 2114.18 3166 264 8 11 866 26543 10971 11899783 25873959 53% 46 10927386 97%
c - 2127.90 3166 261 8 12 866 26789 7610 11801936 25873959 54% 46 10927386 97%
c i 2130.70 3166 268 8 12 866 26847 7660 11801939 25873959 54% 45 10927385 97%
c i 2133.02 3166 269 8 12 866 26862 7673 11801939 25873959 54% 45 10927384 97%
c 2 2264.57 3169 330 8 12 866 28812 9589 11798275 25873959 57% 39 10927384 97%
c s 2271.42 3169 330 8 12 866 28812 9589 12047596 25542044 57% 39 10927384 97%
c e 2781.42 4595 330 8 12 866 28812 9589 2270795 21674431 57% 39 3044903 27%
c 2 2781.54 4423 330 8 12 866 28812 9589 2268733 21674431 57% 39 3044903 27%
c s 2796.90 4423 330 8 12 866 28812 9589 2298739 21505304 57% 39 3044903 27%
c e 2803.27 3367 330 8 12 866 28812 9589 2295823 21502316 57% 39 3040652 27%
c ^ 2803.27 3238 330 8 12 866 28812 9589 2295823 21502316 57% 39 3040652 27%
c
c   seconds      switched   conflicts          irredundant      variables
c             MB   reductions    redundant               trail        remaining
c               level  restarts           binary             glue
c
c - 2832.79 2746 369 8 13 866 30254 2547 2309505 21488554 56% 36 3040652 27%
c } 2840.44 2746 371 9 13 866 30491 2784 2309505 21488554 57% 35 3040652 27%
c [ 2840.44 2746 344 9 13 866 30491 2784 2309505 21488554 69% 40 3040652 27%
c B 2878.42 2750 352 9 13 868 33008 5172 2309601 21488553 68% 40 3040652 27%
c i 2892.10 2752 356 9 13 868 33616 5765 2309606 21488553 68% 43 3040649 27%
c - 2895.23 2752 357 9 14 868 33859 3881 2301724 21488553 68% 44 3040649 27%
c - 3011.08 2754 354 9 15 871 37600 4427 2301769 21488553 70% 43 3040649 27%
c - 3162.57 2754 351 9 16 872 41473 4271 2301783 21488553 71% 42 3040649 27%
c d 3178.25 2776 351 9 16 872 42037 4824 2301777 21416614 71% 42 3040640 27%
c b 3180.15 2776 351 9 16 872 42037 4824 2301777 21416614 71% 42 3039413 27%
c u 3203.07 2780 351 9 16 872 42037 4789 2301809 21416614 71% 42 3039281 27%
c v 3225.42 2780 351 9 16 872 42037 4786 2301810 21416614 71% 42 3039277 27%
c w 3264.82 2919 351 9 16 872 42037 4803 2397325 20739964 71% 42 2786155 25%
c = 3325.83 2933 351 9 16 872 42037 4803 2934054 16879608 71% 42 2555357 23%
c d 3327.19 2971 351 9 16 872 42037 4789 2431235 16715088 71% 42 2548571 23%
c d 3327.96 2972 351 9 16 872 42037 4789 2363651 16610259 71% 42 2514779 22%
c t 3332.05 2972 351 9 16 872 42037 4789 2363453 16610259 71% 42 2514739 22%
c b 3332.48 2972 351 9 16 872 42037 4789 2363453 16610259 71% 42 2513373 22%
c i 3332.48 2972 351 9 16 872 42037 4789 2363453 16610259 71% 42 2513373 22%
c W 3417.12 2411 345 9 16 875 45231 7972 2048037 16517107 72% 41 2513373 22%
c
c   seconds      switched   conflicts          irredundant      variables
c             MB   reductions    redundant               trail        remaining
c               level  restarts           binary             glue
c
c - 3424.77 2456 345 9 17 875 45474 4059 2084594 16480550 72% 41 2513373 22%
c - 3549.61 2458 346 9 18 878 49597 3967 2084606 16480550 73% 40 2513373 22%
c caught signal 2 (SIGINT)
c
c ---- [ profiling ] ---------------------------------------------------------
c
c        2655.41   73.77 %  search
c        1413.32   39.26 %  stable
c        1242.09   34.51 %  focused
c         934.64   25.97 %  simplify
c         540.52   15.02 %  eliminate
c         382.85   10.64 %  probe
c         194.18    5.39 %  vivify
c         116.64    3.24 %  sweep
c          29.58    0.82 %  backbone
c          27.49    0.76 %  substitute
c          22.62    0.63 %  subsume
c          17.32    0.48 %  reduce
c          14.96    0.42 %  transitive
c          11.27    0.31 %  walking
c           9.52    0.26 %  parse
c           1.40    0.04 %  warmup
c =============================================
c        3599.57  100.00 %  total
c
c ---- [ statistics ] --------------------------------------------------------
c
c chronological:                        11628               23 %  conflicts
c conflicts:                            51465               14.30 per second
c decisions:                          1728971               33.60 per conflict
c eliminated:                         7886045               70 %  variables
c jumped_reasons:                  3566321820               22 %  propagations
c propagations:                   16365611278          4546542    per second
c queue_decisions:                     626155               36 %  decision
c random_decisions:                    128180                7 %  decision
c random_sequences:                        16             3217    interval
c reductions:                              18             2859    interval
c rephased:                                 8             6433    interval
c restarts:                               879               58.55 interval
c score_decisions:                     974636               56 %  decision
c strengthened:                       2064929                0 %  checks
c substituted:                         508836                5 %  variables
c subsumed:                            140013                0 %  checks
c switched:                                 9             5718    interval
c vivified:                               595               10 %  checks
c vivify_checks:                         5813             1453    per vivify
c vivify_units:                            27                0 %  variables
c walk_improved:                            2               67 %  walks
c walks:                                    3            17155    interval
c
c ---- [ resources ] ---------------------------------------------------------
c
c maximum-resident-set-size:       5953986560 bytes       5678 MB
c process-time:                             1h            3599.57 seconds
c raising signal 2 (SIGINT)
